1
30 794
645 720 810 920 1010 1105 1215 1340 1430 1535 1625 1800 1940 2040
645 725 815 920 1010 1105 1215 1340 1430 1535 1625 1800 1940 2040
710 800 850 1000 1055 1145 1330 1420 1510 1615 1710 1930 2030 2140
715 805 855 1000 1055 1145 1330 1420 1510 1615 1710 1930 2030 2140
858 1513
1331
1800 2000 2020 2135
